g3 0 1 0	# problem d6n6R3R6d01d1
 6 8 1 0 3	# vars, constraints, objectives, ranges, eqns
 4 1	# nonlinear constraints, objectives
 0 0	# network constraints: nonlinear, linear
 6 6 6	# nonlinear vars in constraints, objectives, both
 0 0 0 1	# linear network variables; functions; arith, flags
 0 0 0 0 0	# discrete variables: binary, integer, nonlinear (b,c,o)
 48 6	# nonzeros in Jacobian, gradients
 0 0	# max name lengths: constraints, variables
 0 0 0 0 0	# common exprs: b,c,o,c1,o1
b
0 0.63 2.53
0 0.12 2.71
0 0.68 2.55
0 0.31 2.32
0 0.81 2.05
0 0.86 2.25
r
2 53.202
2 104.159
2 252.229
2 1072.38
4 28.147
4 38.418
4 43.184
2 41.58
C0
o0
o2
o2
n8.18
v3
v4
o2
o2
n2.49
v5
v5
C1
o54
5
o2
o2
n0.9
v3
v4
o2
o2
n5.23
v5
v5
o2
o2
o2
n8.53
v0
v1
v5
o2
o2
o2
n0.69
v1
v1
v3
o2
o2
o2
n0.62
v1
v1
v5
C2
o54
18
o2
o2
n3.03
v3
v4
o2
o2
n6.28
v5
v5
o2
o2
o2
n4.2
v0
v1
v5
o2
o2
o2
n3.07
v1
v1
v3
o2
o2
o2
n3.02
v1
v1
v5
o2
o2
o2
o2
n0.92
v0
v0
v0
v1
o2
o2
o2
o2
n2.37
v0
v0
v2
v5
o2
o2
o2
o2
n3.47
v0
v0
v4
v5
o2
o2
o2
o2
n4.66
v0
v1
v1
v2
o2
o2
o2
o2
n9.79
v0
v1
v3
v4
o2
o2
o2
o2
n7.02
v0
v2
v4
v4
o16
o2
o2
o2
o2
n3.17
v0
v4
v4
v5
o2
o2
o2
o2
n2.81
v1
v1
v1
v2
o2
o2
o2
o2
n7.74
v1
v1
v2
v3
o2
o2
o2
o2
n3.7
v1
v1
v3
v5
o16
o2
o2
o2
o2
n9.46
v2
v2
v4
v4
o2
o2
o2
o2
n1.29
v3
v3
v3
v4
o2
o2
o2
o2
n3.14
v3
v5
v5
v5
C3
o54
46
o2
o2
n2.69
v3
v4
o2
o2
n5.01
v5
v5
o2
o2
o2
n4.07
v0
v1
v5
o2
o2
o2
n5.51
v1
v1
v3
o2
o2
o2
n7.26
v1
v1
v5
o2
o2
o2
o2
n6.5
v0
v0
v0
v1
o2
o2
o2
o2
n3.72
v0
v0
v2
v5
o2
o2
o2
o2
n8.14
v0
v0
v4
v5
o2
o2
o2
o2
n8.99
v0
v1
v1
v2
o2
o2
o2
o2
n7.11
v0
v1
v3
v4
o2
o2
o2
o2
n3.13
v0
v2
v4
v4
o2
o2
o2
o2
n2.53
v0
v4
v4
v5
o2
o2
o2
o2
n6.23
v1
v1
v1
v2
o2
o2
o2
o2
n8.4
v1
v1
v2
v3
o2
o2
o2
o2
n3.2
v1
v1
v3
v5
o2
o2
o2
o2
n9.22
v2
v2
v4
v4
o16
o2
o2
o2
o2
n6.89
v3
v3
v3
v4
o2
o2
o2
o2
n0.37
v3
v5
v5
v5
o2
o2
o2
o2
o2
n3.52
v0
v0
v1
v2
v4
o2
o2
o2
o2
o2
n9.64
v0
v0
v1
v4
v5
o2
o2
o2
o2
o2
n9.56
v0
v0
v2
v5
v5
o2
o2
o2
o2
o2
n1.71
v0
v1
v1
v1
v4
o2
o2
o2
o2
o2
n4.14
v0
v1
v1
v2
v3
o2
o2
o2
o2
o2
n1.95
v0
v1
v1
v4
v4
o2
o2
o2
o2
o2
n5.92
v0
v1
v3
v5
v5
o2
o2
o2
o2
o2
n1.21
v0
v2
v2
v3
v3
o2
o2
o2
o2
o2
n8.63
v0
v3
v3
v3
v5
o16
o2
o2
o2
o2
o2
n8.11
v0
v3
v3
v5
v5
o2
o2
o2
o2
o2
n4.31
v0
v4
v5
v5
v5
o2
o2
o2
o2
o2
n0.45
v1
v1
v1
v1
v5
o2
o2
o2
o2
o2
n8.25
v1
v1
v1
v4
v4
o2
o2
o2
o2
o2
n2.2
v1
v1
v3
v3
v3
o2
o2
o2
o2
o2
n4.7
v1
v1
v3
v4
v4
o2
o2
o2
o2
o2
n7.78
v1
v1
v4
v5
v5
o2
o2
o2
o2
o2
n7.52
v1
v2
v5
v5
v5
o16
o2
o2
o2
o2
o2
n10
v2
v2
v2
v2
v3
o2
o2
o2
o2
o2
n4.73
v2
v2
v3
v3
v3
o2
o2
o2
o2
o2
n3.48
v2
v2
v3
v4
v4
o2
o2
o2
o2
o2
n0.97
v2
v2
v4
v4
v5
o2
o2
o2
o2
o2
n9.8
v2
v3
v3
v3
v5
o16
o2
o2
o2
o2
o2
n7.17
v2
v3
v4
v4
v5
o2
o2
o2
o2
o2
n6.23
v2
v3
v5
v5
v5
o2
o2
o2
o2
o2
n1.14
v2
v4
v4
v5
v5
o2
o2
o2
o2
o2
n4.45
v2
v5
v5
v5
v5
o2
o2
o2
o2
o2
n8.51
v3
v3
v3
v5
v5
o2
o2
o2
o2
o2
n0.79
v4
v4
v5
v5
v5
C4
n0
C5
n0
C6
n0
C7
n0
O0 0
o54
92
o2
o2
n3.43
v3
v4
o2
o2
n6.92
v5
v5
o2
o2
o2
n2.51
v0
v1
v5
o2
o2
o2
n7.06
v1
v1
v3
o2
o2
o2
n0.2
v1
v1
v5
o2
o2
o2
o2
n0.73
v0
v0
v0
v1
o2
o2
o2
o2
n0.29
v0
v0
v2
v5
o16
o2
o2
o2
o2
n7.39
v0
v0
v4
v5
o2
o2
o2
o2
n6.09
v0
v1
v1
v2
o2
o2
o2
o2
n1.16
v0
v1
v3
v4
o2
o2
o2
o2
n3.06
v0
v2
v4
v4
o2
o2
o2
o2
n6.69
v0
v4
v4
v5
o2
o2
o2
o2
n4.26
v1
v1
v1
v2
o2
o2
o2
o2
n1.3
v1
v1
v2
v3
o2
o2
o2
o2
n1.65
v1
v1
v3
v5
o2
o2
o2
o2
n8.51
v2
v2
v4
v4
o2
o2
o2
o2
n0.82
v3
v3
v3
v4
o2
o2
o2
o2
n3.46
v3
v5
v5
v5
o2
o2
o2
o2
o2
n2.09
v0
v0
v1
v2
v4
o2
o2
o2
o2
o2
n5.45
v0
v0
v1
v4
v5
o2
o2
o2
o2
o2
n5.82
v0
v0
v2
v5
v5
o2
o2
o2
o2
o2
n7.89
v0
v1
v1
v1
v4
o2
o2
o2
o2
o2
n4.64
v0
v1
v1
v2
v3
o2
o2
o2
o2
o2
n1.07
v0
v1
v1
v4
v4
o2
o2
o2
o2
o2
n0.48
v0
v1
v3
v5
v5
o16
o2
o2
o2
o2
o2
n7.89
v0
v2
v2
v3
v3
o2
o2
o2
o2
o2
n9.22
v0
v3
v3
v3
v5
o2
o2
o2
o2
o2
n8.07
v0
v3
v3
v5
v5
o16
o2
o2
o2
o2
o2
n0.68
v0
v4
v5
v5
v5
o2
o2
o2
o2
o2
n1.02
v1
v1
v1
v1
v5
o2
o2
o2
o2
o2
n6.96
v1
v1
v1
v4
v4
o2
o2
o2
o2
o2
n2.68
v1
v1
v3
v3
v3
o2
o2
o2
o2
o2
n6.66
v1
v1
v3
v4
v4
o2
o2
o2
o2
o2
n6.71
v1
v1
v4
v5
v5
o2
o2
o2
o2
o2
n8.08
v1
v2
v5
v5
v5
o2
o2
o2
o2
o2
n5.33
v2
v2
v2
v2
v3
o2
o2
o2
o2
o2
n9
v2
v2
v3
v3
v3
o2
o2
o2
o2
o2
n0.03
v2
v2
v3
v4
v4
o2
o2
o2
o2
o2
n5.97
v2
v2
v4
v4
v5
o2
o2
o2
o2
o2
n7.6
v2
v3
v3
v3
v5
o2
o2
o2
o2
o2
n0.86
v2
v3
v4
v4
v5
o16
o2
o2
o2
o2
o2
n1.69
v2
v3
v5
v5
v5
o2
o2
o2
o2
o2
n7.55
v2
v4
v4
v5
v5
o2
o2
o2
o2
o2
n5.31
v2
v5
v5
v5
v5
o2
o2
o2
o2
o2
n6.47
v3
v3
v3
v5
v5
o2
o2
o2
o2
o2
n4.39
v4
v4
v5
v5
v5
o2
o2
o2
o2
o2
o2
n9.89
v0
v0
v0
v0
v1
v2
o2
o2
o2
o2
o2
o2
n8.01
v0
v0
v0
v0
v1
v5
o2
o2
o2
o2
o2
o2
n5.8
v0
v0
v0
v0
v4
v5
o2
o2
o2
o2
o2
o2
n5.3
v0
v0
v0
v1
v1
v1
o2
o2
o2
o2
o2
o2
n3.03
v0
v0
v0
v1
v1
v5
o2
o2
o2
o2
o2
o2
n4.59
v0
v0
v0
v2
v2
v4
o16
o2
o2
o2
o2
o2
o2
n5.61
v0
v0
v0
v3
v3
v5
o16
o2
o2
o2
o2
o2
o2
n4.9
v0
v0
v1
v1
v3
v4
o2
o2
o2
o2
o2
o2
n9.08
v0
v0
v1
v2
v2
v2
o2
o2
o2
o2
o2
o2
n5.24
v0
v0
v1
v2
v3
v4
o2
o2
o2
o2
o2
o2
n6.61
v0
v0
v1
v2
v4
v4
o2
o2
o2
o2
o2
o2
n1.98
v0
v0
v2
v2
v2
v5
o2
o2
o2
o2
o2
o2
n7.64
v0
v0
v2
v2
v3
v3
o2
o2
o2
o2
o2
o2
n9.56
v0
v0
v3
v3
v4
v5
o2
o2
o2
o2
o2
o2
n7
v0
v0
v3
v4
v4
v4
o2
o2
o2
o2
o2
o2
n4.95
v0
v1
v1
v3
v3
v5
o2
o2
o2
o2
o2
o2
n7.28
v0
v1
v1
v4
v4
v5
o2
o2
o2
o2
o2
o2
n1.04
v0
v1
v2
v4
v4
v5
o2
o2
o2
o2
o2
o2
n2.14
v0
v1
v3
v3
v3
v3
o2
o2
o2
o2
o2
o2
n9.39
v0
v1
v3
v4
v5
v5
o2
o2
o2
o2
o2
o2
n3.53
v0
v1
v4
v5
v5
v5
o2
o2
o2
o2
o2
o2
n7.65
v0
v2
v2
v2
v2
v2
o2
o2
o2
o2
o2
o2
n0.56
v0
v2
v2
v2
v3
v3
o2
o2
o2
o2
o2
o2
n1.81
v0
v2
v2
v2
v4
v5
o2
o2
o2
o2
o2
o2
n2.86
v0
v3
v3
v4
v5
v5
o16
o2
o2
o2
o2
o2
o2
n8.82
v0
v4
v4
v5
v5
v5
o2
o2
o2
o2
o2
o2
n6.17
v1
v1
v1
v1
v2
v2
o2
o2
o2
o2
o2
o2
n9.69
v1
v1
v1
v1
v3
v5
o16
o2
o2
o2
o2
o2
o2
n3.1
v1
v1
v1
v2
v2
v4
o16
o2
o2
o2
o2
o2
o2
n8.55
v1
v1
v2
v2
v2
v2
o2
o2
o2
o2
o2
o2
n6.75
v1
v2
v2
v2
v3
v3
o2
o2
o2
o2
o2
o2
n7.81
v1
v2
v2
v2
v3
v5
o16
o2
o2
o2
o2
o2
o2
n0.04
v1
v2
v2
v4
v4
v4
o2
o2
o2
o2
o2
o2
n4.89
v1
v3
v3
v3
v4
v5
o2
o2
o2
o2
o2
o2
n8.66
v1
v4
v4
v4
v4
v5
o2
o2
o2
o2
o2
o2
n0.74
v2
v2
v2
v2
v2
v3
o2
o2
o2
o2
o2
o2
n0.26
v2
v2
v2
v2
v3
v5
o2
o2
o2
o2
o2
o2
n5.51
v2
v2
v2
v3
v3
v3
o2
o2
o2
o2
o2
o2
n7.85
v2
v2
v2
v3
v4
v5
o2
o2
o2
o2
o2
o2
n1.65
v2
v2
v3
v4
v5
v5
o2
o2
o2
o2
o2
o2
n0.22
v2
v2
v5
v5
v5
v5
o2
o2
o2
o2
o2
o2
n9.72
v2
v3
v4
v4
v4
v4
o2
o2
o2
o2
o2
o2
n7.03
v2
v3
v4
v4
v4
v5
o2
o2
o2
o2
o2
o2
n7.36
v2
v4
v4
v4
v4
v5
o2
o2
o2
o2
o2
o2
n1.65
v3
v3
v3
v4
v4
v5
o2
o2
o2
o2
o2
o2
n6.56
v3
v4
v5
v5
v5
v5
k5
8
16
24
32
40
J0 6
0 8.78
1 3.96
2 1.22
3 3.05
4 0.14
5 3.95
J1 6
0 5.98
1 9.77
2 1.35
3 7.07
4 5.91
5 8.5
J2 6
0 0.53
1 0.99
2 6.5
3 3.12
4 8.41
5 9.83
J3 6
0 2.32
1 1.87
2 6.58
3 0.62
4 1.52
5 0.48
J4 6
0 6.87
1 8.52
2 -9.56
3 5.78
4 5.74
5 3.13
J5 6
0 -1.57
1 0.69
2 5.4
3 4.42
4 8.62
5 8.4
J6 6
0 2.98
1 8.02
2 4.61
3 6.22
4 -2.33
5 9.54
J7 6
0 0.97
1 9.56
2 -2.99
3 1.28
4 9.98
5 9.9
G0 6
0 3.56
1 6.59
2 0.87
3 -3.27
4 1.2
5 5.52
